27
27.0 992.0
735.0 722.0
25.0 415.0
681.0 962.0
199.0 428.0
217.0 753.0
876.0 518.0
419.0 940.0
686.0 931.0
213.0 130.0
950.0 286.0
446.0 89.0
80.0 521.0
605.0 899.0
536.0 42.0
645.0 660.0
312.0 294.0
382.0 587.0
990.0 583.0
39.0 563.0
778.0 531.0
519.0 157.0
301.0 75.0
788.0 435.0
630.0 796.0
947.0 107.0
390.0 461.0